# Solution for model count
# Objective value = 10
z#1 0
z#2 1
z#3 0
z#4 0
z#5 1
z#6 1
z#7 1
z#8 1
z#9 1
z#10 1
z#11 0
z#12 0
z#13 0
z#14 0
z#15 0
z#16 1
z#17 1
z#18 0
z#19 0
z#20 0
z#21 0
z#22 0
z#23 0
z#24 1
x#24 288
x#23 0
x#22 0
x#21 0
x#20 0
x#19 0
x#18 0
x#17 2934
x#16 456
x#15 0
x#14 0
x#13 0
x#12 0
x#11 0
x#10 378
x#9 1606
x#8 2644
x#7 419
x#6 77
x#5 569
x#4 0
x#3 0
x#2 629
x#1 0
